
Gurobi 6.5.2 (win64) logging started 07/23/16 03:10:16


Gurobi 6.5.2 (win64) logging started 07/23/16 03:10:16

Optimize a model with 26504 rows, 1513 columns and 57193 nonzeros
Coefficient statistics:
  Matrix range    [4e-06, 1e+03]
  Objective range [1e+00, 1e+00]
  Bounds range    [1e+00, 1e+00]
  RHS range       [1e+00, 1e+03]
Found heuristic solution: objective 3.81286e+06
Presolve removed 26478 rows and 1489 columns
Presolve time: 0.01s
Presolved: 26 rows, 24 columns, 75 nonzeros
Found heuristic solution: objective 3812669.0468
Variable types: 24 continuous, 0 integer (0 binary)

Root relaxation: objective 2.084106e+02, 17 iterations, 0.00 seconds

    Nodes    |    Current Node    |     Objective Bounds      |     Work
 Expl Unexpl |  Obj  Depth IntInf | Incumbent    BestBd   Gap | It/Node Time

*    0     0               0     208.4105971  208.41060  0.00%     -    0s

Explored 0 nodes (17 simplex iterations) in 0.02 seconds
Thread count was 8 (of 8 available processors)

Optimal solution found (tolerance 1.00e-04)
Best objective 2.084105971478e+02, best bound 2.084105971478e+02, gap 0.0%

Wrote requested result file 'H2\instance21\\Results21EC_Sol3.lp'

